NAME : 	X-n957-k87	
COMMENT : 	"Generated by Uchoa, Pecin, Pessoa, Poggi, Subramanian, and Vidal (2013)"	
TYPE : 	CVRP	
DIMENSION : 	957	
EDGE_WEIGHT_TYPE : 	EUC_2D	
CAPACITY : 	11	
NODE_COORD_SECTION		
1	737	450
2	235	789
3	340	234
4	346	320
5	406	309
6	556	636
7	872	923
8	937	83
9	9	321
10	558	18
11	63	833
12	250	509
13	143	192
14	624	286
15	364	117
16	332	953
17	235	142
18	590	430
19	303	692
20	936	665
21	39	410
22	247	581
23	986	739
24	11	283
25	138	747
26	837	511
27	596	206
28	218	339
29	443	922
30	555	133
31	896	306
32	415	752
33	691	216
34	51	0
35	726	19
36	166	333
37	951	932
38	928	807
39	505	590
40	236	284
41	115	882
42	238	887
43	729	26
44	94	697
45	409	899
46	993	715
47	473	607
48	414	55
49	884	327
50	651	407
51	891	372
52	570	733
53	919	529
54	629	220
55	711	630
56	141	492
57	720	382
58	794	51
59	745	451
60	409	990
61	825	781
62	966	938
63	378	175
64	859	269
65	596	131
66	419	557
67	77	908
68	679	268
69	726	860
70	382	728
71	885	15
72	258	313
73	734	905
74	533	912
75	924	636
76	694	621
77	469	223
78	507	707
79	892	168
80	281	800
81	607	285
82	388	354
83	568	781
84	22	348
85	153	579
86	218	236
87	308	904
88	119	154
89	939	105
90	489	374
91	547	736
92	480	1000
93	124	883
94	647	930
95	295	741
96	213	53
97	701	446
98	589	708
99	644	147
100	133	377
101	983	343
102	169	651
103	262	450
104	255	422
105	115	640
106	693	344
107	896	910
108	298	531
109	573	416
110	416	512
111	870	50
112	185	436
113	656	268
114	53	522
115	587	165
116	542	762
117	995	809
118	266	878
119	27	812
120	196	522
121	45	164
122	174	729
123	252	311
124	681	621
125	594	478
126	848	361
127	897	253
128	729	354
129	255	410
130	811	703
131	677	991
132	781	909
133	971	632
134	540	824
135	887	144
136	475	860
137	509	336
138	967	433
139	897	98
140	157	676
141	971	727
142	972	381
143	658	504
144	375	214
145	280	526
146	895	158
147	196	779
148	379	223
149	692	470
150	22	395
151	119	604
152	622	843
153	289	811
154	98	365
155	111	426
156	261	101
157	483	818
158	820	480
159	433	961
160	656	421
161	511	273
162	334	794
163	426	686
164	870	112
165	941	978
166	744	498
167	7	346
168	168	877
169	166	244
170	604	430
171	176	452
172	522	306
173	912	406
174	423	564
175	505	779
176	101	383
177	729	307
178	162	515
179	647	869
180	784	983
181	496	811
182	736	39
183	833	529
184	646	367
185	922	294
186	513	535
187	373	331
188	471	694
189	39	149
190	813	538
191	153	115
192	244	505
193	716	286
194	409	228
195	140	484
196	652	239
197	141	628
198	30	924
199	877	307
200	586	723
201	336	615
202	856	584
203	984	221
204	641	671
205	648	704
206	19	309
207	661	125
208	614	194
209	253	864
210	106	841
211	187	687
212	5	289
213	657	83
214	658	58
215	419	839
216	519	347
217	191	864
218	666	486
219	288	276
220	562	646
221	516	725
222	75	785
223	309	966
224	743	856
225	121	698
226	286	258
227	70	635
228	376	539
229	824	834
230	650	350
231	742	277
232	977	647
233	268	698
234	973	145
235	569	655
236	765	22
237	427	869
238	11	869
239	377	793
240	162	897
241	102	444
242	979	386
243	69	483
244	294	395
245	424	536
246	37	705
247	126	782
248	490	30
249	348	771
250	808	469
251	107	512
252	782	207
253	161	793
254	859	469
255	148	763
256	403	723
257	978	760
258	214	132
259	467	387
260	292	262
261	238	846
262	853	27
263	855	506
264	591	902
265	213	742
266	203	364
267	183	3
268	143	608
269	501	152
270	649	492
271	904	31
272	997	741
273	527	299
274	26	402
275	543	506
276	902	548
277	47	419
278	125	226
279	206	608
280	811	668
281	643	265
282	189	736
283	79	287
284	382	630
285	225	604
286	412	843
287	924	756
288	474	356
289	533	721
290	445	101
291	579	994
292	652	658
293	633	914
294	889	206
295	464	243
296	680	735
297	420	998
298	798	490
299	75	518
300	27	680
301	118	804
302	181	428
303	489	91
304	367	977
305	777	679
306	501	137
307	856	6
308	75	999
309	777	984
310	171	874
311	909	569
312	730	509
313	326	596
314	59	533
315	455	853
316	612	163
317	959	409
318	987	154
319	883	195
320	207	6
321	39	831
322	227	416
323	657	701
324	703	976
325	260	286
326	6	135
327	821	740
328	491	397
329	140	716
330	6	773
331	497	447
332	666	487
333	529	74
334	860	929
335	384	223
336	524	854
337	102	833
338	653	843
339	260	234
340	66	997
341	864	478
342	425	897
343	482	914
344	497	805
345	646	13
346	670	113
347	483	458
348	722	56
349	611	456
350	832	655
351	275	331
352	851	924
353	746	341
354	811	324
355	950	762
356	697	467
357	368	215
358	458	65
359	174	245
360	277	138
361	624	145
362	80	463
363	696	41
364	309	279
365	985	212
366	934	241
367	839	676
368	717	623
369	752	11
370	732	768
371	5	440
372	125	793
373	556	154
374	137	547
375	178	892
376	363	804
377	855	769
378	269	726
379	415	353
380	961	560
381	432	998
382	197	594
383	354	413
384	655	357
385	903	500
386	446	77
387	710	425
388	883	381
389	208	950
390	493	246
391	776	9
392	286	208
393	119	538
394	267	810
395	924	550
396	207	306
397	734	468
398	654	618
399	102	700
400	196	533
401	978	464
402	987	161
403	342	874
404	501	638
405	105	260
406	557	72
407	246	754
408	577	758
409	200	110
410	107	621
411	501	789
412	581	925
413	672	281
414	333	221
415	366	691
416	871	557
417	759	559
418	384	926
419	184	941
420	512	969
421	29	740
422	361	929
423	874	282
424	769	858
425	878	141
426	820	64
427	429	224
428	611	820
429	26	93
430	268	308
431	426	545
432	211	836
433	28	441
434	669	276
435	519	784
436	445	780
437	762	46
438	935	724
439	937	750
440	390	916
441	934	288
442	435	47
443	990	14
444	830	399
445	581	559
446	490	787
447	564	416
448	748	774
449	566	767
450	873	118
451	626	559
452	833	478
453	82	836
454	311	362
455	718	313
456	975	337
457	148	207
458	986	476
459	463	313
460	769	67
461	114	335
462	28	562
463	59	461
464	12	780
465	154	192
466	27	360
467	787	422
468	206	469
469	774	765
470	521	751
471	499	129
472	52	528
473	304	554
474	502	257
475	131	279
476	960	233
477	408	79
478	917	541
479	195	837
480	536	257
481	573	374
482	163	907
483	282	530
484	143	982
485	182	1000
486	506	298
487	410	452
488	495	313
489	577	549
490	474	280
491	295	775
492	179	898
493	626	568
494	196	516
495	754	367
496	53	627
497	263	962
498	252	558
499	122	892
500	657	277
501	267	505
502	234	594
503	366	471
504	197	863
505	512	375
506	239	454
507	541	224
508	601	365
509	505	354
510	500	422
511	707	336
512	273	546
513	527	276
514	322	525
515	91	411
516	85	871
517	688	231
518	320	507
519	526	472
520	477	320
521	329	491
522	196	877
523	172	870
524	584	428
525	598	346
526	476	354
527	180	863
528	473	213
529	422	21
530	192	866
531	594	342
532	218	531
533	533	262
534	330	99
535	141	952
536	608	516
537	554	243
538	435	353
539	209	560
540	408	228
541	241	919
542	80	811
543	513	278
544	429	712
545	458	313
546	330	226
547	148	941
548	468	293
549	247	375
550	619	32
551	671	277
552	382	441
553	403	542
554	521	294
555	522	435
556	473	216
557	572	236
558	224	863
559	550	379
560	183	428
561	568	347
562	156	944
563	555	327
564	293	641
565	568	173
566	529	560
567	532	163
568	760	446
569	564	214
570	240	624
571	431	401
572	719	272
573	493	338
574	513	305
575	58	940
576	569	412
577	357	402
578	495	188
579	618	412
580	194	844
581	416	250
582	610	341
583	788	91
584	275	569
585	658	479
586	231	504
587	93	683
588	648	191
589	155	877
590	692	379
591	291	501
592	603	359
593	65	935
594	308	1000
595	655	499
596	605	328
597	750	582
598	588	234
599	601	327
600	488	236
601	505	403
602	565	242
603	566	428
604	599	351
605	68	979
606	199	868
607	574	331
608	177	583
609	246	760
610	233	820
611	450	497
612	369	620
613	98	932
614	164	880
615	378	219
616	183	868
617	528	489
618	228	852
619	381	89
620	355	930
621	235	927
622	458	212
623	532	252
624	529	385
625	179	971
626	228	583
627	481	409
628	250	951
629	550	450
630	516	526
631	250	804
632	535	225
633	209	808
634	275	671
635	170	388
636	514	280
637	692	415
638	405	186
639	494	319
640	527	341
641	655	311
642	514	583
643	208	584
644	625	472
645	280	735
646	368	535
647	3	597
648	74	556
649	492	190
650	644	366
651	125	280
652	512	487
653	491	334
654	558	227
655	306	641
656	516	417
657	130	940
658	728	321
659	586	250
660	163	510
661	325	804
662	634	395
663	497	506
664	277	608
665	354	927
666	205	986
667	570	356
668	610	370
669	582	278
670	264	442
671	141	967
672	292	250
673	286	573
674	102	989
675	113	287
676	93	921
677	558	356
678	501	576
679	252	987
680	670	319
681	500	304
682	479	583
683	74	907
684	88	945
685	461	302
686	299	562
687	139	808
688	576	358
689	540	167
690	619	292
691	588	254
692	678	278
693	337	525
694	327	517
695	410	380
696	447	579
697	214	521
698	537	246
699	596	421
700	131	919
701	711	456
702	333	359
703	668	356
704	225	531
705	320	932
706	566	207
707	238	331
708	344	596
709	544	305
710	316	530
711	666	352
712	671	214
713	508	266
714	389	596
715	408	282
716	198	849
717	439	346
718	186	797
719	407	355
720	184	615
721	642	467
722	226	880
723	557	251
724	252	556
725	192	502
726	637	316
727	494	209
728	282	556
729	362	596
730	123	748
731	405	524
732	579	333
733	604	519
734	500	194
735	578	394
736	290	691
737	16	824
738	122	921
739	664	191
740	482	371
741	508	82
742	478	725
743	521	464
744	115	585
745	461	356
746	630	209
747	499	288
748	503	407
749	643	278
750	670	494
751	215	911
752	571	374
753	519	219
754	270	798
755	554	399
756	514	232
757	139	900
758	212	485
759	481	272
760	565	323
761	84	435
762	508	204
763	608	283
764	474	478
765	613	272
766	526	251
767	275	474
768	549	526
769	128	956
770	229	882
771	253	521
772	63	939
773	622	245
774	656	232
775	116	930
776	277	581
777	253	812
778	171	909
779	454	558
780	597	343
781	176	526
782	397	522
783	660	200
784	532	255
785	574	213
786	319	535
787	688	407
788	470	141
789	475	401
790	133	913
791	131	896
792	606	292
793	623	382
794	509	413
795	168	834
796	626	343
797	344	495
798	300	624
799	178	795
800	321	965
801	437	899
802	470	151
803	343	576
804	265	545
805	643	266
806	242	679
807	592	292
808	563	318
809	553	284
810	398	315
811	356	814
812	333	236
813	508	179
814	460	532
815	267	520
816	618	473
817	237	292
818	564	407
819	477	269
820	480	478
821	0	879
822	271	557
823	568	415
824	520	320
825	644	280
826	299	943
827	377	474
828	282	495
829	642	304
830	410	533
831	699	373
832	320	373
833	223	972
834	266	512
835	451	452
836	661	386
837	155	908
838	283	574
839	504	387
840	329	539
841	583	527
842	198	544
843	387	439
844	599	274
845	554	410
846	649	140
847	715	73
848	349	471
849	664	345
850	542	330
851	546	320
852	214	857
853	583	268
854	531	224
855	270	955
856	182	583
857	70	547
858	154	923
859	751	545
860	325	263
861	562	311
862	587	472
863	331	307
864	558	377
865	159	909
866	562	324
867	563	275
868	386	644
869	621	387
870	656	400
871	120	907
872	260	910
873	343	471
874	467	416
875	571	350
876	534	235
877	632	287
878	327	472
879	498	312
880	292	527
881	564	368
882	417	404
883	473	358
884	44	941
885	323	246
886	683	364
887	289	536
888	347	492
889	156	911
890	183	553
891	613	381
892	514	281
893	293	971
894	171	190
895	168	960
896	410	446
897	146	893
898	208	941
899	244	521
900	340	856
901	516	521
902	596	289
903	599	257
904	366	504
905	391	390
906	602	631
907	453	376
908	367	488
909	448	189
910	563	289
911	599	328
912	530	131
913	509	482
914	340	432
915	242	924
916	424	414
917	186	848
918	658	496
919	452	224
920	401	652
921	145	832
922	574	238
923	254	592
924	477	236
925	150	541
926	224	670
927	583	361
928	521	244
929	125	870
930	649	282
931	204	917
932	280	550
933	571	243
934	594	407
935	501	372
936	634	289
937	608	220
938	307	478
939	618	428
940	532	276
941	47	856
942	569	319
943	300	609
944	348	569
945	351	637
946	562	210
947	708	471
948	212	920
949	448	523
950	320	640
951	451	379
952	294	497
953	616	295
954	249	810
955	299	505
956	550	289
957	347	720
DEMAND_SECTION		
1	0	
2	1	
3	1	
4	1	
5	1	
6	1	
7	1	
8	1	
9	1	
10	1	
11	1	
12	1
13	1
14	1
15	1
16	1
17	1
18	1
19	1
20	1
21	1
22	1
23	1
24	1
25	1
26	1
27	1
28	1
29	1
30	1
31	1
32	1
33	1
34	1
35	1
36	1
37	1
38	1
39	1
40	1
41	1
42	1
43	1
44	1
45	1
46	1
47	1
48	1
49	1
50	1
51	1
52	1
53	1
54	1
55	1
56	1
57	1
58	1
59	1
60	1
61	1
62	1
63	1
64	1
65	1
66	1
67	1
68	1
69	1
70	1
71	1
72	1
73	1
74	1
75	1
76	1
77	1
78	1
79	1
80	1
81	1
82	1
83	1
84	1
85	1
86	1
87	1
88	1
89	1
90	1
91	1
92	1
93	1
94	1
95	1
96	1
97	1
98	1
99	1
100	1
101	1
102	1
103	1
104	1
105	1
106	1
107	1
108	1
109	1
110	1
111	1
112	1
113	1
114	1
115	1
116	1
117	1
118	1
119	1
120	1
121	1
122	1
123	1
124	1
125	1
126	1
127	1
128	1
129	1
130	1
131	1
132	1
133	1
134	1
135	1
136	1
137	1
138	1
139	1
140	1
141	1
142	1
143	1
144	1
145	1
146	1
147	1
148	1
149	1
150	1
151	1
152	1
153	1
154	1
155	1
156	1
157	1
158	1
159	1
160	1
161	1
162	1
163	1
164	1
165	1
166	1
167	1
168	1
169	1
170	1
171	1
172	1
173	1
174	1
175	1
176	1
177	1
178	1
179	1
180	1
181	1
182	1
183	1
184	1
185	1
186	1
187	1
188	1
189	1
190	1
191	1
192	1
193	1
194	1
195	1
196	1
197	1
198	1
199	1
200	1
201	1
202	1
203	1
204	1
205	1
206	1
207	1
208	1
209	1
210	1
211	1
212	1
213	1
214	1
215	1
216	1
217	1
218	1
219	1
220	1
221	1
222	1
223	1
224	1
225	1
226	1
227	1
228	1
229	1
230	1
231	1
232	1
233	1
234	1
235	1
236	1
237	1
238	1
239	1
240	1
241	1
242	1
243	1
244	1
245	1
246	1
247	1
248	1
249	1
250	1
251	1
252	1
253	1
254	1
255	1
256	1
257	1
258	1
259	1
260	1
261	1
262	1
263	1
264	1
265	1
266	1
267	1
268	1
269	1
270	1
271	1
272	1
273	1
274	1
275	1
276	1
277	1
278	1
279	1
280	1
281	1
282	1
283	1
284	1
285	1
286	1
287	1
288	1
289	1
290	1
291	1
292	1
293	1
294	1
295	1
296	1
297	1
298	1
299	1
300	1
301	1
302	1
303	1
304	1
305	1
306	1
307	1
308	1
309	1
310	1
311	1
312	1
313	1
314	1
315	1
316	1
317	1
318	1
319	1
320	1
321	1
322	1
323	1
324	1
325	1
326	1
327	1
328	1
329	1
330	1
331	1
332	1
333	1
334	1
335	1
336	1
337	1
338	1
339	1
340	1
341	1
342	1
343	1
344	1
345	1
346	1
347	1
348	1
349	1
350	1
351	1
352	1
353	1
354	1
355	1
356	1
357	1
358	1
359	1
360	1
361	1
362	1
363	1
364	1
365	1
366	1
367	1
368	1
369	1
370	1
371	1
372	1
373	1
374	1
375	1
376	1
377	1
378	1
379	1
380	1
381	1
382	1
383	1
384	1
385	1
386	1
387	1
388	1
389	1
390	1
391	1
392	1
393	1
394	1
395	1
396	1
397	1
398	1
399	1
400	1
401	1
402	1
403	1
404	1
405	1
406	1
407	1
408	1
409	1
410	1
411	1
412	1
413	1
414	1
415	1
416	1
417	1
418	1
419	1
420	1
421	1
422	1
423	1
424	1
425	1
426	1
427	1
428	1
429	1
430	1
431	1
432	1
433	1
434	1
435	1
436	1
437	1
438	1
439	1
440	1
441	1
442	1
443	1
444	1
445	1
446	1
447	1
448	1
449	1
450	1
451	1
452	1
453	1
454	1
455	1
456	1
457	1
458	1
459	1
460	1
461	1
462	1
463	1
464	1
465	1
466	1
467	1
468	1
469	1
470	1
471	1
472	1
473	1
474	1
475	1
476	1
477	1
478	1
479	1
480	1
481	1
482	1
483	1
484	1
485	1
486	1
487	1
488	1
489	1
490	1
491	1
492	1
493	1
494	1
495	1
496	1
497	1
498	1
499	1
500	1
501	1
502	1
503	1
504	1
505	1
506	1
507	1
508	1
509	1
510	1
511	1
512	1
513	1
514	1
515	1
516	1
517	1
518	1
519	1
520	1
521	1
522	1
523	1
524	1
525	1
526	1
527	1
528	1
529	1
530	1
531	1
532	1
533	1
534	1
535	1
536	1
537	1
538	1
539	1
540	1
541	1
542	1
543	1
544	1
545	1
546	1
547	1
548	1
549	1
550	1
551	1
552	1
553	1
554	1
555	1
556	1
557	1
558	1
559	1
560	1
561	1
562	1
563	1
564	1
565	1
566	1
567	1
568	1
569	1
570	1
571	1
572	1
573	1
574	1
575	1
576	1
577	1
578	1
579	1
580	1
581	1
582	1
583	1
584	1
585	1
586	1
587	1
588	1
589	1
590	1
591	1
592	1
593	1
594	1
595	1
596	1
597	1
598	1
599	1
600	1
601	1
602	1
603	1
604	1
605	1
606	1
607	1
608	1
609	1
610	1
611	1
612	1
613	1
614	1
615	1
616	1
617	1
618	1
619	1
620	1
621	1
622	1
623	1
624	1
625	1
626	1
627	1
628	1
629	1
630	1
631	1
632	1
633	1
634	1
635	1
636	1
637	1
638	1
639	1
640	1
641	1
642	1
643	1
644	1
645	1
646	1
647	1
648	1
649	1
650	1
651	1
652	1
653	1
654	1
655	1
656	1
657	1
658	1
659	1
660	1
661	1
662	1
663	1
664	1
665	1
666	1
667	1
668	1
669	1
670	1
671	1
672	1
673	1
674	1
675	1
676	1
677	1
678	1
679	1
680	1
681	1
682	1
683	1
684	1
685	1
686	1
687	1
688	1
689	1
690	1
691	1
692	1
693	1
694	1
695	1
696	1
697	1
698	1
699	1
700	1
701	1
702	1
703	1
704	1
705	1
706	1
707	1
708	1
709	1
710	1
711	1
712	1
713	1
714	1
715	1
716	1
717	1
718	1
719	1
720	1
721	1
722	1
723	1
724	1
725	1
726	1
727	1
728	1
729	1
730	1
731	1
732	1
733	1
734	1
735	1
736	1
737	1
738	1
739	1
740	1
741	1
742	1
743	1
744	1
745	1
746	1
747	1
748	1
749	1
750	1
751	1
752	1
753	1
754	1
755	1
756	1
757	1
758	1
759	1
760	1
761	1
762	1
763	1
764	1
765	1
766	1
767	1
768	1
769	1
770	1
771	1
772	1
773	1
774	1
775	1
776	1
777	1
778	1
779	1
780	1
781	1
782	1
783	1
784	1
785	1
786	1
787	1
788	1
789	1
790	1
791	1
792	1
793	1
794	1
795	1
796	1
797	1
798	1
799	1
800	1
801	1
802	1
803	1
804	1
805	1
806	1
807	1
808	1
809	1
810	1
811	1
812	1
813	1
814	1
815	1
816	1
817	1
818	1
819	1
820	1
821	1
822	1
823	1
824	1
825	1
826	1
827	1
828	1
829	1
830	1
831	1
832	1
833	1
834	1
835	1
836	1
837	1
838	1
839	1
840	1
841	1
842	1
843	1
844	1
845	1
846	1
847	1
848	1
849	1
850	1
851	1
852	1
853	1
854	1
855	1
856	1
857	1
858	1
859	1
860	1
861	1
862	1
863	1
864	1
865	1
866	1
867	1
868	1
869	1
870	1
871	1
872	1
873	1
874	1
875	1
876	1
877	1
878	1
879	1
880	1
881	1
882	1
883	1
884	1
885	1
886	1
887	1
888	1
889	1
890	1
891	1
892	1
893	1
894	1
895	1
896	1
897	1
898	1
899	1
900	1
901	1
902	1
903	1
904	1
905	1
906	1
907	1
908	1
909	1
910	1
911	1
912	1
913	1
914	1
915	1
916	1
917	1
918	1
919	1
920	1
921	1
922	1
923	1
924	1
925	1
926	1
927	1
928	1
929	1
930	1
931	1
932	1
933	1
934	1
935	1
936	1
937	1
938	1
939	1
940	1
941	1
942	1
943	1
944	1
945	1
946	1
947	1
948	1
949	1
950	1
951	1
952	1
953	1
954	1
955	1
956	1
957	1
DEPOT_SECTION	
	1
	-1
EOF	
